p cnf 30 103
c ind 1 2 3 4 5 6 7 8 0
-9 1 0
-9 4 0
-10 5 0
-10 8 0
-9 1 0
-9 6 0
-10 3 0
-10 8 0
-9 -11 1 0
-9 -12 5 0
-9 -13 3 0
-9 -14 7 0
-10 -11 2 0
-10 -12 6 0
-10 -13 4 0
-10 -14 8 0
-9 -11 1 0
-9 -12 3 0
-9 -13 5 0
-9 -14 7 0
-10 -11 2 0
-10 -12 4 0
-10 -13 6 0
-10 -14 8 0
-1 1 15 0
-3 1 16 0
-1 5 17 0
-3 5 18 0
-1 3 19 0
-3 3 20 0
-1 7 21 0
-3 7 22 0
-5 1 23 0
-7 1 24 0
-5 5 25 0
-7 5 26 0
-5 3 27 0
-7 3 28 0
-5 7 29 0
-7 7 30 0
-2 2 15 0
-4 2 16 0
-2 6 17 0
-4 6 18 0
-2 4 19 0
-4 4 20 0
-2 8 21 0
-4 8 22 0
-6 2 23 0
-8 2 24 0
-6 6 25 0
-8 6 26 0
-6 4 27 0
-8 4 28 0
-6 8 29 0
-8 8 30 0
-1 -1 -15 0
-1 -3 -16 0
-3 -5 -15 0
-3 -7 -16 0
-5 -1 -17 0
-5 -3 -18 0
-7 -5 -17 0
-7 -7 -18 0
-1 -2 -19 0
-1 -4 -20 0
-3 -6 -19 0
-3 -8 -20 0
-5 -2 -21 0
-5 -4 -22 0
-7 -6 -21 0
-7 -8 -22 0
-2 -1 -23 0
-2 -3 -24 0
-4 -5 -23 0
-4 -7 -24 0
-6 -1 -25 0
-6 -3 -26 0
-8 -5 -25 0
-8 -7 -26 0
-2 -2 -27 0
-2 -4 -28 0
-4 -6 -27 0
-4 -8 -28 0
-6 -2 -29 0
-6 -4 -30 0
-8 -6 -29 0
-8 -8 -30 0
1 2 0
-1 -2 0
3 4 0
-3 -4 0
5 6 0
-5 -6 0
7 8 0
-7 -8 0
11 13 0
-11 -13 0
12 14 0
-12 -14 0
9 10 0
-9 -10 0
9 0
